sat
(:max-memory        20.17
 :memory            17.86
 :num-allocs        437683846
 :rlimit-count      3255499
 :sls-constraints   8846
 :sls-ddfw-flips    2712657.00
 :sls-ddfw-reinits  23
 :sls-ddfw-restarts 56
 :sls-ddfw-shifts   940085.00
 :sls.euf-conflict  8846
 :time              4.14
 :total-time        4.14)
